30
235
8
50
52
13
82
20
1
25
89
0 4
0 5
0 6
0 7
0 10
0 12
0 13
0 14
0 15
0 16
0 21
0 22
0 26
0 28
1 3
1 4
1 5
1 6
1 8
1 9
1 13
1 14
1 17
1 19
1 20
1 21
1 24
1 25
1 26
2 8
2 10
2 12
2 14
2 16
2 19
2 23
2 25
2 27
2 28
2 29
3 4
3 5
3 6
3 8
3 10
3 13
3 14
3 16
3 19
3 20
3 23
3 24
3 27
3 28
4 6
4 7
4 8
4 9
4 13
4 15
4 16
4 19
4 22
4 23
4 24
4 25
4 27
4 28
4 29
5 6
5 7
5 10
5 11
5 12
5 13
5 14
5 16
5 18
5 26
5 27
5 28
5 29
6 7
6 9
6 10
6 12
6 13
6 14
6 15
6 17
6 18
6 19
6 20
6 23
6 25
6 27
6 28
7 8
7 9
7 10
7 13
7 15
7 18
7 19
7 22
7 23
7 28
7 29
8 11
8 14
8 16
8 18
8 19
8 20
8 21
8 22
8 25
8 27
8 29
9 12
9 13
9 14
9 16
9 19
9 21
9 23
9 24
9 26
9 28
9 29
10 11
10 14
10 17
10 19
10 21
10 22
10 24
10 25
10 26
10 28
11 12
11 17
11 18
11 19
11 20
11 22
11 24
12 13
12 14
12 15
12 17
12 22
12 23
12 24
12 26
12 27
12 28
12 29
13 14
13 18
13 25
13 26
13 27
14 16
14 17
14 18
14 19
14 20
14 22
14 23
14 25
14 27
15 19
15 20
15 22
15 23
15 24
15 25
15 26
15 27
15 28
15 29
16 18
16 19
16 20
16 21
16 22
16 23
16 25
16 26
16 28
16 29
17 18
17 19
17 20
17 23
17 25
17 26
17 27
17 28
18 20
18 23
18 25
18 26
18 27
18 29
19 20
19 21
19 24
19 25
19 26
19 27
19 28
20 22
20 23
20 25
20 29
21 22
21 23
21 24
21 25
22 28
23 24
23 25
23 27
24 28
24 29
25 26
25 28
25 29
26 28
26 29
27 28
27 29
28 29
6 13 9 18
8 29 27 2
4 28 14 25
11 21 23 24
12 0 10 1
5 19 22 17
26 15 3 7
20 16
